# Instance RC207 - 90 dynamic requests - 10 static requests
Dyn   Stat
90    10
ID    RD
11    -1
23    -1
49    -1
64    -1
65    -1
67    -1
69    -1
72    -1
83    -1
95    -1
1     204
2     11
3     156
4     40
5     21
6     121
7     143
8     178
9     20
10    369
12    16
13    338
14    20
15    6
16    33
17    26
18    73
19    125
20    447
21    124
22    257
24    80
25    138
26    301
27    36
28    25
29    82
30    77
31    38
32    66
33    10
34    364
35    359
36    12
37    521
38    81
39    30
40    137
41    49
42    3
43    213
44    47
45    2
46    344
47    8
48    55
50    289
51    82
52    50
53    62
54    235
55    19
56    279
57    111
58    296
59    17
60    79
61    3
62    12
63    7
66    312
68    88
70    130
71    198
73    76
74    75
75    148
76    115
77    152
78    36
79    172
80    33
81    110
82    28
84    200
85    303
86    112
87    279
88    53
89    33
90    85
91    550
92    5
93    242
94    8
96    433
97    336
98    73
99    162
100   212
